
Gurobi 9.5.0 (linux64) logging started Fri Dec  8 15:49:40 2023

Set parameter LogFile to value "/lustre1/scratch/348/vsc34888/JointResearch/05.Models/06.Benchmarking/G.Representative_days_based_on_Line_Benefit_NN_OC_fy_2/RTS24_mod1_ByStages_nc10/openStarNet_RTS24_mod1_ByStages_nc10.log"
Set parameter Method to value 2
Set parameter MIPFocus to value 1
Set parameter Presolve to value 2
Set parameter RINS to value 100
Set parameter MIPGap to value 0.01
Set parameter Threads to value 36
Set parameter TimeLimit to value 259200
Set parameter IterationLimit to value 760000000
Gurobi Optimizer version 9.5.0 build v9.5.0rc5 (linux64)
Thread count: 36 physical cores, 36 logical processors, using up to 36 threads
Optimize a model with 3908 rows, 2651 columns and 10626 nonzeros
Model fingerprint: 0x39fbba46
Variable types: 2630 continuous, 21 integer (21 binary)
Coefficient statistics:
  Matrix range     [8e-03, 2e+03]
  Objective range  [1e+00, 1e+00]
  Bounds range     [3e-05, 2e+00]
  RHS range        [3e-05, 2e+00]
Presolve removed 2333 rows and 1343 columns
Presolve time: 0.02s
Presolved: 1575 rows, 1308 columns, 5686 nonzeros
Variable types: 1287 continuous, 21 integer (21 binary)
Found heuristic solution: objective 86.3893514
Root relaxation presolve removed 3 rows and 3 columns
Root relaxation presolved: 1572 rows, 1305 columns, 5680 nonzeros

Root barrier log...

Ordering time: 0.02s

Barrier statistics:
 AA' NZ     : 2.814e+04
 Factor NZ  : 1.420e+05 (roughly 2 MB of memory)
 Factor Ops : 1.944e+07 (less than 1 second per iteration)
 Threads    : 36

                  Objective                Residual
Iter       Primal          Dual         Primal    Dual     Compl     Time
   0   5.92835012e+05 -3.97955633e+07  5.01e+00 9.69e+02  2.98e+04     0s
   1   4.95864848e+04 -9.89931442e+06  4.41e-01 6.13e-11  3.60e+03     0s
   2   2.05088509e+04 -7.47475898e+06  1.66e-01 6.47e-11  2.31e+03     0s
   3   6.56497700e+03 -9.55923118e+05  1.48e-02 3.86e-11  2.68e+02     0s
   4   4.10683362e+03 -3.69797230e+04  1.24e-13 1.31e-11  1.11e+01     0s
   5   7.93656314e+02 -4.78288435e+03  2.52e-13 5.98e-12  1.51e+00     0s
   6   4.14544565e+02 -1.66485731e+03  1.58e-13 7.28e-12  5.63e-01     0s
   7   2.21454372e+02 -7.19492614e+02  1.02e-13 3.64e-12  2.55e-01     0s
   8   1.05583895e+02 -1.41330473e+02  1.13e-13 7.28e-12  6.68e-02     0s
   9   7.73751686e+01 -6.06101115e+00  1.72e-13 3.64e-12  2.26e-02     0s
  10   6.13529488e+01  3.15178558e+01  2.62e-13 3.64e-12  8.08e-03     0s
  11   5.41456272e+01  4.27471128e+01  3.19e-13 3.64e-12  3.09e-03     0s
  12   5.03285862e+01  4.65340940e+01  2.51e-12 3.64e-12  1.03e-03     0s
  13   4.89085327e+01  4.80232024e+01  3.28e-12 1.82e-12  2.40e-04     0s
  14   4.88020782e+01  4.81690624e+01  4.95e-11 2.73e-12  1.71e-04     0s
  15   4.84916690e+01  4.82317052e+01  5.73e-11 3.64e-12  7.04e-05     0s
  16   4.84160198e+01  4.82761059e+01  3.71e-11 7.28e-12  3.79e-05     0s
  17   4.83182132e+01  4.82832027e+01  5.37e-11 3.64e-12  9.48e-06     0s
  18   4.83016260e+01  4.82884169e+01  7.02e-11 3.64e-12  3.58e-06     0s
  19   4.82972319e+01  4.82933148e+01  4.02e-11 3.64e-12  1.06e-06     0s
  20   4.82965103e+01  4.82961111e+01  1.56e-11 3.64e-12  1.08e-07     0s
  21   4.82964257e+01  4.82963739e+01  4.14e-11 1.82e-12  1.40e-08     0s
  22   4.82964128e+01  4.82964127e+01  2.21e-11 3.64e-12  2.34e-11     0s

Barrier solved model in 22 iterations and 0.31 seconds (0.06 work units)
Optimal objective 4.82964128e+01


Root relaxation: objective 4.829641e+01, 198 iterations, 0.26 seconds (0.04 work units)

    Nodes    |    Current Node    |     Objective Bounds      |     Work
 Expl Unexpl |  Obj  Depth IntInf | Incumbent    BestBd   Gap | It/Node Time

     0     0   48.29641    0    9   86.38935   48.29641  44.1%     -    0s
     0     0   49.88059    0    6   86.38935   49.88059  42.3%     -    0s
H    0     0                      83.2404326   49.88059  40.1%     -    0s
H    0     0                      76.3104353   49.88059  34.6%     -    0s
     0     0   50.67511    0    6   76.31044   50.67511  33.6%     -    0s
H    0     0                      69.5953598   50.67511  27.2%     -    0s
     0     0   50.86971    0    8   69.59536   50.86971  26.9%     -    0s
H    0     0                      67.4418751   50.86971  24.6%     -    0s
     0     0   51.27703    0   10   67.44188   51.27703  24.0%     -    0s
     0     0   51.56023    0   11   67.44188   51.56023  23.5%     -    0s
     0     0   52.14136    0   10   67.44188   52.14136  22.7%     -    0s
     0     0   53.28185    0   12   67.44188   53.28185  21.0%     -    0s
H    0     0                      66.3979036   53.45668  19.5%     -    0s
     0     0   53.45668    0   12   66.39790   53.45668  19.5%     -    0s
H    0     0                      62.4543838   53.64175  14.1%     -    0s
     0     0   53.64175    0   12   62.45438   53.64175  14.1%     -    0s
H    0     0                      61.9430768   54.28622  12.4%     -    0s
H    0     0                      61.9341955   54.28622  12.3%     -    0s
     0     0   54.28622    0   12   61.93420   54.28622  12.3%     -    0s
     0     0   54.74614    0   13   61.93420   54.74614  11.6%     -    0s
     0     0   54.88486    0   13   61.93420   54.88486  11.4%     -    0s
     0     0   55.18793    0   13   61.93420   55.18793  10.9%     -    0s
     0     2   55.18793    0   13   61.93420   55.18793  10.9%     -    1s
H  130    54                      61.9153210   55.54636  10.3%  35.1    1s

Cutting planes:
  Gomory: 3
  Implied bound: 11
  MIR: 47
  Relax-and-lift: 10

Explored 579 nodes (16131 simplex iterations) in 2.39 seconds (1.62 work units)
Thread count was 36 (of 36 available processors)

Solution count 10: 61.9153 61.9342 61.9431 ... 86.3894

Optimal solution found (tolerance 1.00e-02)
Best objective 6.191532100163e+01, best bound 6.191532100163e+01, gap 0.0000%

Gurobi 9.5.0 (linux64) logging started Fri Dec  8 15:49:42 2023

Set parameter LogFile to value "/lustre1/scratch/348/vsc34888/JointResearch/05.Models/06.Benchmarking/G.Representative_days_based_on_Line_Benefit_NN_OC_fy_2/RTS24_mod1_ByStages_nc10/openStarNet_RTS24_mod1_ByStages_nc10.log"
Set parameter Method to value 2
Set parameter MIPFocus to value 1
Set parameter Presolve to value 2
Set parameter RINS to value 100
Set parameter MIPGap to value 0.01
Set parameter Threads to value 36
Set parameter TimeLimit to value 259200
Set parameter IterationLimit to value 760000000
No parameters matching 'relax_integrality' found
Gurobi Optimizer version 9.5.0 build v9.5.0rc5 (linux64)
Thread count: 36 physical cores, 36 logical processors, using up to 36 threads
Optimize a model with 3908 rows, 2630 columns and 9681 nonzeros
Model fingerprint: 0x307af14e
Coefficient statistics:
  Matrix range     [8e-03, 2e+03]
  Objective range  [1e+00, 1e+00]
  Bounds range     [3e-05, 2e+00]
  RHS range        [3e-05, 2e+01]
Presolve removed 3272 rows and 1484 columns
Presolve time: 0.01s
Presolved: 636 rows, 1157 columns, 2747 nonzeros

Ordering time: 0.00s

Barrier statistics:
 AA' NZ     : 1.396e+03
 Factor NZ  : 5.533e+03 (roughly 1 MB of memory)
 Factor Ops : 7.554e+04 (less than 1 second per iteration)
 Threads    : 1

                  Objective                Residual
Iter       Primal          Dual         Primal    Dual     Compl     Time
   0   1.38348097e+06 -2.43402301e+07  7.37e+00 4.02e+03  1.06e+05     0s
   1   9.67705425e+04 -1.60263995e+07  4.56e-01 6.55e-11  1.29e+04     0s
   2   4.10960603e+04 -5.09931920e+06  1.27e-01 8.15e-11  3.30e+03     0s
   3   2.00569664e+04 -7.12640469e+05  1.55e-03 8.73e-11  3.80e+02     0s
   4   1.19402135e+04 -6.07658562e+04  1.08e-11 9.28e-11  3.75e+01     0s
   5   2.95465609e+03 -9.18338355e+03  1.05e-11 2.91e-11  6.26e+00     0s
   6   4.45426530e+02 -1.77099722e+03  2.87e-12 1.46e-11  1.14e+00     0s
   7   2.49955981e+02 -4.58278410e+02  1.31e-12 7.28e-12  3.65e-01     0s
   8   1.24743284e+02 -2.30149202e+01  2.99e-13 1.46e-11  7.62e-02     0s
   9   7.65374558e+01  3.78140054e+01  2.13e-13 1.46e-11  2.00e-02     0s
  10   6.45080266e+01  5.67201244e+01  2.54e-13 7.28e-12  4.01e-03     0s
  11   6.25198731e+01  6.09429614e+01  1.94e-13 7.28e-12  8.13e-04     0s
  12   6.19498600e+01  6.17634434e+01  2.12e-13 1.46e-11  9.61e-05     0s
  13   6.19165496e+01  6.19105509e+01  2.81e-13 1.46e-11  3.09e-06     0s
  14   6.19153231e+01  6.19153158e+01  7.68e-14 7.28e-12  3.78e-09     0s
  15   6.19153210e+01  6.19153210e+01  1.80e-13 7.28e-12  3.78e-12     0s
  16   6.19153210e+01  6.19153210e+01  4.52e-13 1.46e-11  8.08e-17     0s

Barrier solved model in 16 iterations and 0.02 seconds (0.01 work units)
Optimal objective 6.19153210e+01

Crossover log...

     145 DPushes remaining with DInf 0.0000000e+00                 0s
       0 DPushes remaining with DInf 0.0000000e+00                 0s

      38 PPushes remaining with PInf 0.0000000e+00                 0s
       0 PPushes remaining with PInf 0.0000000e+00                 0s

  Push phase complete: Pinf 0.0000000e+00, Dinf 4.2630518e-13      0s

Iteration    Objective       Primal Inf.    Dual Inf.      Time
      43    6.1915321e+01   0.000000e+00   0.000000e+00      0s

Use crossover to convert LP symmetric solution to basic solution...
Crossover log...

      30 PPushes remaining with PInf 0.0000000e+00                 0s
       0 PPushes remaining with PInf 0.0000000e+00                 0s

  Push phase complete: Pinf 0.0000000e+00, Dinf 4.6836822e-13      0s

Iteration    Objective       Primal Inf.    Dual Inf.      Time
      76    6.1915321e+01   0.000000e+00   0.000000e+00      0s

Solved in 76 iterations and 0.02 seconds (0.01 work units)
Optimal objective  6.191532100e+01
